p edge 20 54 5
v 2 4 5
v 6 7 9 10 11 13 18
v 4 1 3 12 17
v 3 14 16 19
v 5 2 6 8 15 20
e 1 6
e 1 14
e 1 16
e 2 6
e 2 15
e 2 16
e 2 17
e 2 19
e 3 5
e 3 7
e 3 9
e 3 12
e 3 19
e 3 20
e 4 6
e 4 10
e 4 12
e 4 19
e 5 6
e 5 7
e 5 8
e 5 9
e 5 11
e 5 13
e 5 17
e 5 18
e 5 19
e 5 20
e 6 16
e 6 17
e 6 18
e 7 13
e 7 20
e 8 10
e 8 12
e 8 15
e 8 17
e 8 18
e 9 12
e 9 15
e 10 15
e 10 20
e 11 13
e 11 14
e 11 20
e 12 15
e 12 19
e 13 16
e 13 20
e 14 18
e 15 16
e 15 17
e 16 17
e 16 20
